DATASET = "thpack1";
INSTANCE = "020";

WIDTH = 233;
HEIGHT = 220;
LENGTH = 587;

NO_OF_SHAPES = 3;
size = [|
  97,77,66 |
  81,69,69 |
  109,53,24 |
|];

verticality = [|
  1,1,1 |
  1,1,1 |
  0,0,1 |
|];

box_count = [
  28,
  32,
  28,
];
